c 3 __LINUXTHREADS_OLD__
c 5 __UCLIBC_HAS_GNU_GLOB__
c 1 __UCLIBC_HAS_THREADS_NATIVE__
c 2 __UCLIBC_HAS_XLOCALE__
c 9 __UCLIBC_HAS_LOCALE__
c 6 __UCLIBC_HAS_GLOB__
c 4 __UCLIBC_HAS_LFS__
c 8 __MALLOC_STANDARD__
c 10 __LINUXTHREADS_NEW__
c 7 __UCLIBC_HAS_THREADS__
p cnf 10 1
1 -5 -4 -6 -3 -2 -7 -8 9 10 1
